
Gurobi 11.0.0 (win64) logging started Sat Jun 15 09:43:50 2024

Set parameter LogFile to value "./GurobiLog/stage_1_iter_3.log"
Gurobi Optimizer version 11.0.0 build v11.0.0rc2 (win64 - Windows 10.0 (18363.2))

CPU model: Intel(R) Core(TM) i7-8700 CPU @ 3.20GHz, instruction set [SSE2|AVX|AVX2]
Thread count: 6 physical cores, 12 logical processors, using up to 1 threads

Optimize a model with 1484 rows, 20453 columns and 35143 nonzeros
Coefficient statistics:
  Matrix range     [1e-02, 7e+03]
  Objective range  [1e-01, 2e+05]
  Bounds range     [1e+01, 8e+05]
  RHS range        [1e+00, 4e+04]
LP warm-start: use basis
Iteration    Objective       Primal Inf.    Dual Inf.      Time
       0    2.3716525e+04   7.399079e+03   0.000000e+00      0s
     129    3.4931293e+04   0.000000e+00   0.000000e+00      0s

Solved in 129 iterations and 0.01 seconds (0.01 work units)
Optimal objective  3.493129333e+04

Gurobi 11.0.0 (win64) logging started Sat Jun 15 10:42:21 2024

Set parameter LogFile to value "./GurobiLog/stage_1_iter_3.log"
Gurobi Optimizer version 11.0.0 build v11.0.0rc2 (win64 - Windows 10.0 (18363.2))

CPU model: Intel(R) Core(TM) i7-8700 CPU @ 3.20GHz, instruction set [SSE2|AVX|AVX2]
Thread count: 6 physical cores, 12 logical processors, using up to 1 threads

Optimize a model with 1484 rows, 20453 columns and 35578 nonzeros
Coefficient statistics:
  Matrix range     [3e-02, 7e+03]
  Objective range  [1e-01, 2e+05]
  Bounds range     [2e-12, 4e+05]
  RHS range        [1e+00, 3e+04]
LP warm-start: use basis
Iteration    Objective       Primal Inf.    Dual Inf.      Time
       0    4.2918817e+04   2.044810e+04   0.000000e+00      0s
     144    4.7839454e+04   0.000000e+00   0.000000e+00      0s

Solved in 144 iterations and 0.02 seconds (0.02 work units)
Optimal objective  4.783945400e+04

Gurobi 11.0.0 (win64) logging started Sat Jun 15 11:01:02 2024

Set parameter LogFile to value "./GurobiLog/stage_1_iter_3.log"
Gurobi Optimizer version 11.0.0 build v11.0.0rc2 (win64 - Windows 10.0 (18363.2))

CPU model: Intel(R) Core(TM) i7-8700 CPU @ 3.20GHz, instruction set [SSE2|AVX|AVX2]
Thread count: 6 physical cores, 12 logical processors, using up to 1 threads

Optimize a model with 1484 rows, 20453 columns and 35028 nonzeros
Coefficient statistics:
  Matrix range     [1e-03, 7e+03]
  Objective range  [1e-01, 2e+05]
  Bounds range     [1e+01, 8e+05]
  RHS range        [1e+00, 4e+04]
LP warm-start: use basis
Iteration    Objective       Primal Inf.    Dual Inf.      Time
       0    3.0181493e+04   4.575645e+03   0.000000e+00      0s
       6    3.3215093e+04   0.000000e+00   0.000000e+00      0s

Solved in 6 iterations and 0.01 seconds (0.00 work units)
Optimal objective  3.321509333e+04

Gurobi 11.0.0 (win64) logging started Sat Jun 15 13:54:47 2024

Set parameter LogFile to value "./GurobiLog/stage_1_iter_3.log"
Gurobi Optimizer version 11.0.0 build v11.0.0rc2 (win64 - Windows 10.0 (18363.2))

CPU model: Intel(R) Core(TM) i7-8700 CPU @ 3.20GHz, instruction set [SSE2|AVX|AVX2]
Thread count: 6 physical cores, 12 logical processors, using up to 1 threads

Optimize a model with 2028 rows, 27756 columns and 159897 nonzeros
Coefficient statistics:
  Matrix range     [1e-13, 2e+05]
  Objective range  [1e-01, 2e+05]
  Bounds range     [1e+01, 2e+06]
  RHS range        [3e-01, 9e+05]
Warning: Model contains large matrix coefficient range
         Consider reformulating model or setting NumericFocus parameter
         to avoid numerical issues.
LP warm-start: use basis
Iteration    Objective       Primal Inf.    Dual Inf.      Time
       0   -3.3328031e+06   1.591691e+07   0.000000e+00      0s
     987    6.1981545e+05   0.000000e+00   0.000000e+00      0s

Solved in 987 iterations and 0.07 seconds (0.11 work units)
Optimal objective  6.198154537e+05

Gurobi 11.0.0 (win64) logging started Tue Jul  2 10:33:17 2024

Set parameter LogFile to value "./GurobiLog/stage_1_iter_3.log"
Gurobi Optimizer version 11.0.0 build v11.0.0rc2 (win64 - Windows 10.0 (18363.2))

CPU model: Intel(R) Core(TM) i7-8700 CPU @ 3.20GHz, instruction set [SSE2|AVX|AVX2]
Thread count: 6 physical cores, 12 logical processors, using up to 1 threads

Optimize a model with 1953 rows, 27626 columns and 141636 nonzeros
Coefficient statistics:
  Matrix range     [1e-13, 2e+05]
  Objective range  [1e-03, 2e+05]
  Bounds range     [5e+00, 1e+08]
  RHS range        [1e+00, 5e+07]
Warning: Model contains large matrix coefficient range
         Consider reformulating model or setting NumericFocus parameter
         to avoid numerical issues.
LP warm-start: use basis
Iteration    Objective       Primal Inf.    Dual Inf.      Time
       0   -8.8274060e+06   3.371001e+07   0.000000e+00      0s
    2737    3.6077980e+06   0.000000e+00   0.000000e+00      0s

Solved in 2737 iterations and 0.32 seconds (0.73 work units)
Optimal objective  3.607798029e+06
